100 100 100
50
90 83 8
72 80 26
73 1 98
67 97 49
99 88 16
88 91 23
94 100 92
74 87 46
99 86 34
30 46 37
80 92 23
72 12 83
75 92 12
70 49 78
24 89 83
88 73 24
92 79 37
70 81 39
89 60 69
100 78 41
81 75 23
76 54 90
95 98 31
50 47 22
86 80 49
71 77 48
72 72 27
87 15 89
24 69 91
88 94 25
91 93 92
94 76 13
46 84 77
89 65 52
73 77 97
15 43 33
100 99 56
18 67 81
79 50 56
80 83 19
83 82 14
97 78 44
19 79 81
82 74 23
95 3 69
97 82 61
79 83 34
90 87 46
91 88 10
89 2 84
